p cnf 10 15
7 6 -4 -8 9 0
5 8 1 9 4 0
-1 9 -8 5 -3 0
-7 -10 6 -5 -8 0
2 -5 7 1 -3 0
10 3 5 -8 9 0
5 -6 -3 10 -7 0
-4 -2 -6 -10 -7 0
1 -4 -10 6 -3 0
2 4 -6 -3 -8 0
10 -6 5 8 9 0
-9 6 8 -4 -3 0
7 4 -2 -6 -3 0
5 -10 4 -6 7 0
-1 -3 -2 9 7 0
